50 1370
419 664 300 427 317 994 498 998 661 628 356 54 1029 1 899 329 208 377 579 1 75 89 556 1 888 208 932 301 37 597 275 850 818 167 764 383 48 136 825 985 47 111 819 465 63 665 362 812 857 668 
486 586 280 337 354 936 539 954 675 696 354 17 938 58 851 355 139 454 519 4 139 134 498 13 883 110 872 246 68 685 192 834 810 211 698 415 50 131 762 893 29 144 764 532 101 593 432 880 773 646 
